Maximize
  - 2.0389691726712 edge_0_1_0_0 - 3.0112450096905 edge_0_2_0_0
   - 3.5342337638115 edge_0_3_0_0 - 2.8004984609004 edge_0_5_0_0
   - 2.766470872523 edge_0_6_0_0 - 2.4747502062683 edge_0_7_0_0
   - 3.9925721673084 edge_0_8_0_0 - 2.007522098082 edge_0_10_0_0
   - 1.6391760104233 edge_0_11_0_0 + 0.0757303786216057 edge_1_2_0_0
   - 0.1247549583515983 edge_1_3_0_0 + 0.4398367004113812 edge_1_4_0_0
   - 0.5525607683710738 edge_1_5_0_0 - 0.1506025070651414 edge_1_6_0_0
   - 1.007215544504303 edge_1_8_0_0 - 0.0401000931732392 edge_1_9_0_0
   - 0.2374730913251711 edge_1_10_0_0 - 0.5015553852073921 edge_1_11_0_0
   + 0.1310109122336501 edge_2_1_0_0 - 0.1806102738012374 edge_2_4_0_0
   - 0.5794259097142833 edge_2_5_0_0 - 0.6362599734581856 edge_2_6_0_0
   - 0.6141473871304549 edge_2_7_0_0 - 0.5534774726388063 edge_2_8_0_0
   - 0.797999825698482 edge_2_9_0_0 - 1.038535347023535 edge_2_10_0_0
   - 0.309246489852395 edge_2_11_0_0 - 0.2144309138271605 edge_2_23_0_0
   + 0.5251836158611199 edge_3_1_0_0 + 3.1625198353818 edge_3_2_0_0
   + 0.6003500573334095 edge_3_4_0_0 - 0.1564586888484435 edge_3_5_0_0
   + 1.172737314988 edge_3_6_0_0 - 0.1855027776370143 edge_3_7_0_0
   + 0.26514576944382 edge_3_8_0_0 + 0.5945485810465301 edge_3_9_0_0
   + 0.2960691200395 edge_3_10_0_0 + 0.6392103502466729 edge_3_11_0_0
   - 0.9907079105352359 edge_3_13_0_0 - 0.193748703050464 edge_3_14_0_0
   - 1.4706170317416 edge_3_16_0_0 - 0.4062913241053276 edge_3_17_0_0
   - 0.071177178871162 edge_3_21_0_0 + 0.5419281732160937 edge_3_23_0_0
   - 1.38162967732583 edge_4_1_0_0 - 0.9922085043828911 edge_4_3_0_0
   - 0.3395079283986346 edge_4_5_0_0 - 0.9468125194555501 edge_4_7_0_0
   - 0.0963122400465656 edge_5_1_0_0 - 0.1329328935858108 edge_5_2_0_0
   - 0.2598972211157043 edge_5_3_0_0 + 0.466123715418542 edge_5_4_0_0
   + 0.0558117566477257 edge_5_6_0_0 + 0.0201148135036738 edge_5_7_0_0
   + 0.0201013577385034 edge_5_8_0_0 - 0.2757219296016832 edge_5_9_0_0
   - 0.4636233538748006 edge_5_10_0_0 + 0.5661914404464037 edge_5_11_0_0
   - 0.4225578161414057 edge_5_13_0_0 - 0.5791719173406739 edge_5_14_0_0
   - 0.4729354698727085 edge_5_16_0_0 - 0.8163384329394135 edge_5_17_0_0
   - 0.5694147158792693 edge_5_19_0_0 + 0.3437487358237272 edge_5_21_0_0
   - 0.6670042457940873 edge_5_22_0_0 - 0.0862899597275985 edge_5_23_0_0
   - 0.3518937493737344 edge_6_1_0_0 + 0.1612231328410063 edge_6_2_0_0
   - 0.3729470637133001 edge_6_3_0_0 + 1.083160836501378 edge_6_4_0_0
   + 1.868561010332744 edge_6_5_0_0 + 1.768559875517414 edge_6_7_0_0
   + 2.426441658548007 edge_6_8_0_0 + 0.9943556002788719 edge_6_9_0_0
   + 0.3919306931718744 edge_6_10_0_0 + 0.3343700639146057 edge_6_11_0_0
   - 0.6431531854603837 edge_6_12_0_0 - 0.0787580022131155 edge_6_13_0_0
   + 0.2583728005203211 edge_6_14_0_0 - 0.3346930734732841 edge_6_16_0_0
   + 0.0853771353865479 edge_6_17_0_0 - 0.703854449425882 edge_6_19_0_0
   + 0.207663167773182 edge_6_21_0_0 - 0.8633945392470915 edge_6_22_0_0
   + 0.1488430756038405 edge_6_23_0_0 - 0.3091747602769078 edge_7_1_0_0
   - 0.5163858306537941 edge_7_2_0_0 - 0.5131652801625993 edge_7_3_0_0
   - 0.1377260019070015 edge_7_4_0_0 + 0.2264034565487024 edge_7_5_0_0
   + 0.601997801756619 edge_7_6_0_0 + 0.3801423687787294 edge_7_8_0_0
   - 0.0778544118521706 edge_7_9_0_0 + 0.1254519372058272 edge_7_11_0_0
   - 0.2245480541852725 edge_7_13_0_0 - 0.4214433749302269 edge_7_14_0_0
   - 0.4065287230459341 edge_8_1_0_0 + 0.3498594778600447 edge_8_2_0_0
   - 0.26737157818926 edge_8_3_0_0 + 1.23037154568888 edge_8_4_0_0
   + 1.74695893719456 edge_8_5_0_0 + 1.53707992914254 edge_8_6_0_0
   + 0.611773269500603 edge_8_7_0_0 + 0.8745715158988373 edge_8_9_0_0
   + 0.5663150573288138 edge_8_10_0_0 - 0.13188313317524 edge_8_11_0_0
   - 0.635298613572961 edge_8_12_0_0 + 0.2129565591986526 edge_8_13_0_0
   + 0.2456187797286162 edge_8_14_0_0 + 0.0405006237623853 edge_8_16_0_0
   + 0.3959440086884298 edge_8_17_0_0 + 0.3373961975685042 edge_8_19_0_0
   + 1.254912959628908 edge_8_21_0_0 + 0.8623696202948308 edge_8_22_0_0
   - 0.9187879968075048 edge_8_23_0_0 - 1.301804844945863 edge_9_6_0_0
   - 0.8141344900913612 edge_9_8_0_0 - 0.4673896397368231 edge_9_11_0_0
   + 0.1286652659342889 edge_10_1_0_0 - 0.1034304439653 edge_10_3_0_0
   + 0.6103307715564552 edge_10_4_0_0 + 1.093665287289446 edge_10_5_0_0
   + 0.8130240593838043 edge_10_6_0_0 + 0.355943084944059 edge_10_8_0_0
   + 1.563746428879623 edge_10_9_0_0 + 2.031010698671692 edge_10_11_0_0
   + 1.007874368168117 edge_10_12_0_0 + 1.153359270300867 edge_10_13_0_0
   + 0.5200899348955798 edge_10_14_0_0 + 0.7278487216902442 edge_10_16_0_0
   + 0.1877650641001202 edge_10_17_0_0 + 0.4871299532099741 edge_10_19_0_0
   + 0.1788414747285495 edge_10_21_0_0 + 0.2242186226065389 edge_10_22_0_0
   - 0.6539817906546167 edge_11_1_0_0 - 0.632443355383684 edge_11_2_0_0
   - 0.00432699790154405 edge_11_3_0_0 + 0.5507184836586171 edge_11_4_0_0
   + 0.5991246560280817 edge_11_5_0_0 + 0.8557064658920678 edge_11_6_0_0
   + 0.4625824016210311 edge_11_7_0_0 + 0.2688471869274423 edge_11_8_0_0
   + 0.6154008989890759 edge_11_9_0_0 - 0.2777125959511166 edge_11_10_0_0
   + 0.1729165892567336 edge_11_12_0_0 + 2.266845279622716 edge_11_13_0_0
   + 0.9195052019813362 edge_11_14_0_0 + 1.063856193032689 edge_11_16_0_0
   + 0.3985864623994781 edge_11_17_0_0 + 0.1951049357157234 edge_11_19_0_0
   + 0.3693742849394966 edge_11_21_0_0 + 0.4367028427016325 edge_11_22_0_0
   + 1.886228166612908 edge_11_23_0_0 - 0.7842006662660147 edge_12_9_0_0
   + 0.2501734094003772 edge_12_11_0_0 - 0.0698567827636669 edge_12_13_0_0
   - 0.3293194047245708 edge_12_14_0_0 - 1.078642196575862 edge_12_16_0_0
   - 0.8546567865647442 edge_12_17_0_0 - 1.419526831099851 edge_12_19_0_0
   - 0.4278662118982682 edge_13_1_0_0 - 0.5904971917119862 edge_13_2_0_0
   - 0.6893040560855314 edge_13_3_0_0 + 0.4173257063979548 edge_13_4_0_0
   + 0.8921575357948022 edge_13_5_0_0 - 0.3903829142976491 edge_13_6_0_0
   - 0.3123265066349159 edge_13_7_0_0 - 0.470929922619616 edge_13_8_0_0
   + 0.2711530572928634 edge_13_9_0_0 - 0.274080238098385 edge_13_10_0_0
   + 0.7170104682089247 edge_13_11_0_0 + 2.11275514555972 edge_13_12_0_0
   + 1.275227181319017 edge_13_14_0_0 + 1.487360733023421 edge_13_16_0_0
   + 1.415436810416252 edge_13_17_0_0 + 1.464488355149992 edge_13_19_0_0
   + 1.778480931864159 edge_13_21_0_0 + 1.753521964581403 edge_13_22_0_0
   + 0.3021715325159772 edge_13_23_0_0 - 0.5913235508818693 edge_14_13_0_0
   - 0.3223889158273596 edge_14_16_0_0 - 1.958904926691388 edge_16_1_0_0
   + 0.1771289757983402 edge_16_4_0_0 + 0.5878397480544066 edge_16_5_0_0
   - 0.8713021300943302 edge_16_6_0_0 - 0.9713208707092288 edge_16_8_0_0
   + 0.0291259935468734 edge_16_9_0_0 - 0.1124599602555203 edge_16_11_0_0
   + 0.9011463919062491 edge_16_12_0_0 + 0.0676605978150941 edge_16_13_0_0
   + 1.915734223006305 edge_16_14_0_0 + 0.9304435003261089 edge_16_17_0_0
   + 1.521404726508177 edge_16_19_0_0 + 1.465957706328884 edge_16_21_0_0
   + 1.145707239491147 edge_16_22_0_0 + 0.3467380225676104 edge_16_23_0_0
   - 0.6763006444864221 edge_17_16_0_0 - 0.407117084386961 edge_17_19_0_0
   - 0.7300252139056229 edge_17_21_0_0 - 1.080642702452882 edge_17_22_0_0
   - 0.1821714538363739 edge_19_12_0_0 - 0.5273406579233649 edge_19_13_0_0
   + 0.7495419397588583 edge_19_14_0_0 + 0.0331029930928432 edge_19_16_0_0
   + 1.541110322682572 edge_19_17_0_0 + 1.80096993614878 edge_19_21_0_0
   + 2.073995656316859 edge_19_22_0_0 + 0.5428232283706826 edge_19_23_0_0
   - 0.2676417175498385 edge_21_17_0_0 - 0.0824921908568381 edge_21_19_0_0
   - 0.1643092161691972 edge_21_22_0_0 - 0.7004627941310628 edge_22_12_0_0
   - 0.9029496307888103 edge_22_16_0_0 + 0.3226660907662349 edge_22_17_0_0
   - 0.0698558352262829 edge_22_19_0_0 + 0.4290795140434712 edge_22_21_0_0
   + 0.0301538665292298 edge_22_23_0_0 - 1.147574364940255 edge_23_22_0_0
Subject To
 one_parent_1: edge_0_1_0_0 + edge_2_1_0_0 + edge_3_1_0_0 + edge_4_1_0_0
   + edge_5_1_0_0 + edge_6_1_0_0 + edge_7_1_0_0 + edge_8_1_0_0
   + edge_10_1_0_0 + edge_11_1_0_0 + edge_13_1_0_0 + edge_16_1_0_0 = 1
 consume_one_flow_unit_1: flow_0_1_0_0 - flow_1_2_0_0 - flow_1_3_0_0
   - flow_1_4_0_0 - flow_1_5_0_0 - flow_1_6_0_0 - flow_1_8_0_0
   - flow_1_9_0_0 - flow_1_10_0_0 - flow_1_11_0_0 + flow_2_1_0_0
   + flow_3_1_0_0 + flow_4_1_0_0 + flow_5_1_0_0 + flow_6_1_0_0
   + flow_7_1_0_0 + flow_8_1_0_0 + flow_10_1_0_0 + flow_11_1_0_0
   + flow_13_1_0_0 + flow_16_1_0_0 = 1
 one_parent_2: edge_0_2_0_0 + edge_1_2_0_0 + edge_3_2_0_0 + edge_5_2_0_0
   + edge_6_2_0_0 + edge_7_2_0_0 + edge_8_2_0_0 + edge_11_2_0_0
   + edge_13_2_0_0 = 1
 consume_one_flow_unit_2: flow_0_2_0_0 + flow_1_2_0_0 - flow_2_1_0_0
   - flow_2_4_0_0 - flow_2_5_0_0 - flow_2_6_0_0 - flow_2_7_0_0
   - flow_2_8_0_0 - flow_2_9_0_0 - flow_2_10_0_0 - flow_2_11_0_0
   - flow_2_23_0_0 + flow_3_2_0_0 + flow_5_2_0_0 + flow_6_2_0_0
   + flow_7_2_0_0 + flow_8_2_0_0 + flow_11_2_0_0 + flow_13_2_0_0 = 1
 one_parent_3: edge_0_3_0_0 + edge_1_3_0_0 + edge_4_3_0_0 + edge_5_3_0_0
   + edge_6_3_0_0 + edge_7_3_0_0 + edge_8_3_0_0 + edge_10_3_0_0
   + edge_11_3_0_0 + edge_13_3_0_0 = 1
 consume_one_flow_unit_3: flow_0_3_0_0 + flow_1_3_0_0 - flow_3_1_0_0
   - flow_3_2_0_0 - flow_3_4_0_0 - flow_3_5_0_0 - flow_3_6_0_0
   - flow_3_7_0_0 - flow_3_8_0_0 - flow_3_9_0_0 - flow_3_10_0_0
   - flow_3_11_0_0 - flow_3_13_0_0 - flow_3_14_0_0 - flow_3_16_0_0
   - flow_3_17_0_0 - flow_3_21_0_0 - flow_3_23_0_0 + flow_4_3_0_0
   + flow_5_3_0_0 + flow_6_3_0_0 + flow_7_3_0_0 + flow_8_3_0_0
   + flow_10_3_0_0 + flow_11_3_0_0 + flow_13_3_0_0 = 1
 one_parent_4: edge_1_4_0_0 + edge_2_4_0_0 + edge_3_4_0_0 + edge_5_4_0_0
   + edge_6_4_0_0 + edge_7_4_0_0 + edge_8_4_0_0 + edge_10_4_0_0
   + edge_11_4_0_0 + edge_13_4_0_0 + edge_16_4_0_0 = 1
 consume_one_flow_unit_4: flow_1_4_0_0 + flow_2_4_0_0 + flow_3_4_0_0
   - flow_4_1_0_0 - flow_4_3_0_0 - flow_4_5_0_0 - flow_4_7_0_0
   + flow_5_4_0_0 + flow_6_4_0_0 + flow_7_4_0_0 + flow_8_4_0_0
   + flow_10_4_0_0 + flow_11_4_0_0 + flow_13_4_0_0 + flow_16_4_0_0 = 1
 one_parent_5: edge_0_5_0_0 + edge_1_5_0_0 + edge_2_5_0_0 + edge_3_5_0_0
   + edge_4_5_0_0 + edge_6_5_0_0 + edge_7_5_0_0 + edge_8_5_0_0
   + edge_10_5_0_0 + edge_11_5_0_0 + edge_13_5_0_0 + edge_16_5_0_0 = 1
 consume_one_flow_unit_5: flow_0_5_0_0 + flow_1_5_0_0 + flow_2_5_0_0
   + flow_3_5_0_0 + flow_4_5_0_0 - flow_5_1_0_0 - flow_5_2_0_0
   - flow_5_3_0_0 - flow_5_4_0_0 - flow_5_6_0_0 - flow_5_7_0_0
   - flow_5_8_0_0 - flow_5_9_0_0 - flow_5_10_0_0 - flow_5_11_0_0
   - flow_5_13_0_0 - flow_5_14_0_0 - flow_5_16_0_0 - flow_5_17_0_0
   - flow_5_19_0_0 - flow_5_21_0_0 - flow_5_22_0_0 - flow_5_23_0_0
   + flow_6_5_0_0 + flow_7_5_0_0 + flow_8_5_0_0 + flow_10_5_0_0
   + flow_11_5_0_0 + flow_13_5_0_0 + flow_16_5_0_0 = 1
 one_parent_6: edge_0_6_0_0 + edge_1_6_0_0 + edge_2_6_0_0 + edge_3_6_0_0
   + edge_5_6_0_0 + edge_7_6_0_0 + edge_8_6_0_0 + edge_9_6_0_0
   + edge_10_6_0_0 + edge_11_6_0_0 + edge_13_6_0_0 + edge_16_6_0_0 = 1
 consume_one_flow_unit_6: flow_0_6_0_0 + flow_1_6_0_0 + flow_2_6_0_0
   + flow_3_6_0_0 + flow_5_6_0_0 - flow_6_1_0_0 - flow_6_2_0_0
   - flow_6_3_0_0 - flow_6_4_0_0 - flow_6_5_0_0 - flow_6_7_0_0
   - flow_6_8_0_0 - flow_6_9_0_0 - flow_6_10_0_0 - flow_6_11_0_0
   - flow_6_12_0_0 - flow_6_13_0_0 - flow_6_14_0_0 - flow_6_16_0_0
   - flow_6_17_0_0 - flow_6_19_0_0 - flow_6_21_0_0 - flow_6_22_0_0
   - flow_6_23_0_0 + flow_7_6_0_0 + flow_8_6_0_0 + flow_9_6_0_0
   + flow_10_6_0_0 + flow_11_6_0_0 + flow_13_6_0_0 + flow_16_6_0_0 = 1
 one_parent_7: edge_0_7_0_0 + edge_2_7_0_0 + edge_3_7_0_0 + edge_4_7_0_0
   + edge_5_7_0_0 + edge_6_7_0_0 + edge_8_7_0_0 + edge_11_7_0_0
   + edge_13_7_0_0 = 1
 consume_one_flow_unit_7: flow_0_7_0_0 + flow_2_7_0_0 + flow_3_7_0_0
   + flow_4_7_0_0 + flow_5_7_0_0 + flow_6_7_0_0 - flow_7_1_0_0
   - flow_7_2_0_0 - flow_7_3_0_0 - flow_7_4_0_0 - flow_7_5_0_0
   - flow_7_6_0_0 - flow_7_8_0_0 - flow_7_9_0_0 - flow_7_11_0_0
   - flow_7_13_0_0 - flow_7_14_0_0 + flow_8_7_0_0 + flow_11_7_0_0
   + flow_13_7_0_0 = 1
 one_parent_8: edge_0_8_0_0 + edge_1_8_0_0 + edge_2_8_0_0 + edge_3_8_0_0
   + edge_5_8_0_0 + edge_6_8_0_0 + edge_7_8_0_0 + edge_9_8_0_0
   + edge_10_8_0_0 + edge_11_8_0_0 + edge_13_8_0_0 + edge_16_8_0_0 = 1
 consume_one_flow_unit_8: flow_0_8_0_0 + flow_1_8_0_0 + flow_2_8_0_0
   + flow_3_8_0_0 + flow_5_8_0_0 + flow_6_8_0_0 + flow_7_8_0_0
   - flow_8_1_0_0 - flow_8_2_0_0 - flow_8_3_0_0 - flow_8_4_0_0
   - flow_8_5_0_0 - flow_8_6_0_0 - flow_8_7_0_0 - flow_8_9_0_0
   - flow_8_10_0_0 - flow_8_11_0_0 - flow_8_12_0_0 - flow_8_13_0_0
   - flow_8_14_0_0 - flow_8_16_0_0 - flow_8_17_0_0 - flow_8_19_0_0
   - flow_8_21_0_0 - flow_8_22_0_0 - flow_8_23_0_0 + flow_9_8_0_0
   + flow_10_8_0_0 + flow_11_8_0_0 + flow_13_8_0_0 + flow_16_8_0_0 = 1
 one_parent_9: edge_1_9_0_0 + edge_2_9_0_0 + edge_3_9_0_0 + edge_5_9_0_0
   + edge_6_9_0_0 + edge_7_9_0_0 + edge_8_9_0_0 + edge_10_9_0_0
   + edge_11_9_0_0 + edge_12_9_0_0 + edge_13_9_0_0 + edge_16_9_0_0 = 1
 consume_one_flow_unit_9: flow_1_9_0_0 + flow_2_9_0_0 + flow_3_9_0_0
   + flow_5_9_0_0 + flow_6_9_0_0 + flow_7_9_0_0 + flow_8_9_0_0
   - flow_9_6_0_0 - flow_9_8_0_0 - flow_9_11_0_0 + flow_10_9_0_0
   + flow_11_9_0_0 + flow_12_9_0_0 + flow_13_9_0_0 + flow_16_9_0_0 = 1
 one_parent_10: edge_0_10_0_0 + edge_1_10_0_0 + edge_2_10_0_0
   + edge_3_10_0_0 + edge_5_10_0_0 + edge_6_10_0_0 + edge_8_10_0_0
   + edge_11_10_0_0 + edge_13_10_0_0 = 1
 consume_one_flow_unit_10: flow_0_10_0_0 + flow_1_10_0_0 + flow_2_10_0_0
   + flow_3_10_0_0 + flow_5_10_0_0 + flow_6_10_0_0 + flow_8_10_0_0
   - flow_10_1_0_0 - flow_10_3_0_0 - flow_10_4_0_0 - flow_10_5_0_0
   - flow_10_6_0_0 - flow_10_8_0_0 - flow_10_9_0_0 - flow_10_11_0_0
   - flow_10_12_0_0 - flow_10_13_0_0 - flow_10_14_0_0 - flow_10_16_0_0
   - flow_10_17_0_0 - flow_10_19_0_0 - flow_10_21_0_0 - flow_10_22_0_0
   + flow_11_10_0_0 + flow_13_10_0_0 = 1
 one_parent_11: edge_0_11_0_0 + edge_1_11_0_0 + edge_2_11_0_0
   + edge_3_11_0_0 + edge_5_11_0_0 + edge_6_11_0_0 + edge_7_11_0_0
   + edge_8_11_0_0 + edge_9_11_0_0 + edge_10_11_0_0 + edge_12_11_0_0
   + edge_13_11_0_0 + edge_16_11_0_0 = 1
 consume_one_flow_unit_11: flow_0_11_0_0 + flow_1_11_0_0 + flow_2_11_0_0
   + flow_3_11_0_0 + flow_5_11_0_0 + flow_6_11_0_0 + flow_7_11_0_0
   + flow_8_11_0_0 + flow_9_11_0_0 + flow_10_11_0_0 - flow_11_1_0_0
   - flow_11_2_0_0 - flow_11_3_0_0 - flow_11_4_0_0 - flow_11_5_0_0
   - flow_11_6_0_0 - flow_11_7_0_0 - flow_11_8_0_0 - flow_11_9_0_0
   - flow_11_10_0_0 - flow_11_12_0_0 - flow_11_13_0_0 - flow_11_14_0_0
   - flow_11_16_0_0 - flow_11_17_0_0 - flow_11_19_0_0 - flow_11_21_0_0
   - flow_11_22_0_0 - flow_11_23_0_0 + flow_12_11_0_0 + flow_13_11_0_0
   + flow_16_11_0_0 = 1
 one_parent_12: edge_6_12_0_0 + edge_8_12_0_0 + edge_10_12_0_0
   + edge_11_12_0_0 + edge_13_12_0_0 + edge_16_12_0_0 + edge_19_12_0_0
   + edge_22_12_0_0 = 1
 consume_one_flow_unit_12: flow_6_12_0_0 + flow_8_12_0_0 + flow_10_12_0_0
   + flow_11_12_0_0 - flow_12_9_0_0 - flow_12_11_0_0 - flow_12_13_0_0
   - flow_12_14_0_0 - flow_12_16_0_0 - flow_12_17_0_0 - flow_12_19_0_0
   + flow_13_12_0_0 + flow_16_12_0_0 + flow_19_12_0_0 + flow_22_12_0_0 = 1
 one_parent_13: edge_3_13_0_0 + edge_5_13_0_0 + edge_6_13_0_0
   + edge_7_13_0_0 + edge_8_13_0_0 + edge_10_13_0_0 + edge_11_13_0_0
   + edge_12_13_0_0 + edge_14_13_0_0 + edge_16_13_0_0 + edge_19_13_0_0 = 1
 consume_one_flow_unit_13: flow_3_13_0_0 + flow_5_13_0_0 + flow_6_13_0_0
   + flow_7_13_0_0 + flow_8_13_0_0 + flow_10_13_0_0 + flow_11_13_0_0
   + flow_12_13_0_0 - flow_13_1_0_0 - flow_13_2_0_0 - flow_13_3_0_0
   - flow_13_4_0_0 - flow_13_5_0_0 - flow_13_6_0_0 - flow_13_7_0_0
   - flow_13_8_0_0 - flow_13_9_0_0 - flow_13_10_0_0 - flow_13_11_0_0
   - flow_13_12_0_0 - flow_13_14_0_0 - flow_13_16_0_0 - flow_13_17_0_0
   - flow_13_19_0_0 - flow_13_21_0_0 - flow_13_22_0_0 - flow_13_23_0_0
   + flow_14_13_0_0 + flow_16_13_0_0 + flow_19_13_0_0 = 1
 one_parent_14: edge_3_14_0_0 + edge_5_14_0_0 + edge_6_14_0_0
   + edge_7_14_0_0 + edge_8_14_0_0 + edge_10_14_0_0 + edge_11_14_0_0
   + edge_12_14_0_0 + edge_13_14_0_0 + edge_16_14_0_0 + edge_19_14_0_0 = 1
 consume_one_flow_unit_14: flow_3_14_0_0 + flow_5_14_0_0 + flow_6_14_0_0
   + flow_7_14_0_0 + flow_8_14_0_0 + flow_10_14_0_0 + flow_11_14_0_0
   + flow_12_14_0_0 + flow_13_14_0_0 - flow_14_13_0_0 - flow_14_16_0_0
   + flow_16_14_0_0 + flow_19_14_0_0 = 1
 one_parent_15: = 1
 consume_one_flow_unit_15: = 1
 one_parent_16: edge_3_16_0_0 + edge_5_16_0_0 + edge_6_16_0_0
   + edge_8_16_0_0 + edge_10_16_0_0 + edge_11_16_0_0 + edge_12_16_0_0
   + edge_13_16_0_0 + edge_14_16_0_0 + edge_17_16_0_0 + edge_19_16_0_0
   + edge_22_16_0_0 = 1
 consume_one_flow_unit_16: flow_3_16_0_0 + flow_5_16_0_0 + flow_6_16_0_0
   + flow_8_16_0_0 + flow_10_16_0_0 + flow_11_16_0_0 + flow_12_16_0_0
   + flow_13_16_0_0 + flow_14_16_0_0 - flow_16_1_0_0 - flow_16_4_0_0
   - flow_16_5_0_0 - flow_16_6_0_0 - flow_16_8_0_0 - flow_16_9_0_0
   - flow_16_11_0_0 - flow_16_12_0_0 - flow_16_13_0_0 - flow_16_14_0_0
   - flow_16_17_0_0 - flow_16_19_0_0 - flow_16_21_0_0 - flow_16_22_0_0
   - flow_16_23_0_0 + flow_17_16_0_0 + flow_19_16_0_0 + flow_22_16_0_0 = 1
 one_parent_17: edge_3_17_0_0 + edge_5_17_0_0 + edge_6_17_0_0
   + edge_8_17_0_0 + edge_10_17_0_0 + edge_11_17_0_0 + edge_12_17_0_0
   + edge_13_17_0_0 + edge_16_17_0_0 + edge_19_17_0_0 + edge_21_17_0_0
   + edge_22_17_0_0 = 1
 consume_one_flow_unit_17: flow_3_17_0_0 + flow_5_17_0_0 + flow_6_17_0_0
   + flow_8_17_0_0 + flow_10_17_0_0 + flow_11_17_0_0 + flow_12_17_0_0
   + flow_13_17_0_0 + flow_16_17_0_0 - flow_17_16_0_0 - flow_17_19_0_0
   - flow_17_21_0_0 - flow_17_22_0_0 + flow_19_17_0_0 + flow_21_17_0_0
   + flow_22_17_0_0 = 1
 one_parent_18: = 1
 consume_one_flow_unit_18: = 1
 one_parent_19: edge_5_19_0_0 + edge_6_19_0_0 + edge_8_19_0_0
   + edge_10_19_0_0 + edge_11_19_0_0 + edge_12_19_0_0 + edge_13_19_0_0
   + edge_16_19_0_0 + edge_17_19_0_0 + edge_21_19_0_0 + edge_22_19_0_0 = 1
 consume_one_flow_unit_19: flow_5_19_0_0 + flow_6_19_0_0 + flow_8_19_0_0
   + flow_10_19_0_0 + flow_11_19_0_0 + flow_12_19_0_0 + flow_13_19_0_0
   + flow_16_19_0_0 + flow_17_19_0_0 - flow_19_12_0_0 - flow_19_13_0_0
   - flow_19_14_0_0 - flow_19_16_0_0 - flow_19_17_0_0 - flow_19_21_0_0
   - flow_19_22_0_0 - flow_19_23_0_0 + flow_21_19_0_0 + flow_22_19_0_0 = 1
 one_parent_20: = 1
 consume_one_flow_unit_20: = 1
 one_parent_21: edge_3_21_0_0 + edge_5_21_0_0 + edge_6_21_0_0
   + edge_8_21_0_0 + edge_10_21_0_0 + edge_11_21_0_0 + edge_13_21_0_0
   + edge_16_21_0_0 + edge_17_21_0_0 + edge_19_21_0_0 + edge_22_21_0_0 = 1
 consume_one_flow_unit_21: flow_3_21_0_0 + flow_5_21_0_0 + flow_6_21_0_0
   + flow_8_21_0_0 + flow_10_21_0_0 + flow_11_21_0_0 + flow_13_21_0_0
   + flow_16_21_0_0 + flow_17_21_0_0 + flow_19_21_0_0 - flow_21_17_0_0
   - flow_21_19_0_0 - flow_21_22_0_0 + flow_22_21_0_0 = 1
 one_parent_22: edge_5_22_0_0 + edge_6_22_0_0 + edge_8_22_0_0
   + edge_10_22_0_0 + edge_11_22_0_0 + edge_13_22_0_0 + edge_16_22_0_0
   + edge_17_22_0_0 + edge_19_22_0_0 + edge_21_22_0_0 + edge_23_22_0_0 = 1
 consume_one_flow_unit_22: flow_5_22_0_0 + flow_6_22_0_0 + flow_8_22_0_0
   + flow_10_22_0_0 + flow_11_22_0_0 + flow_13_22_0_0 + flow_16_22_0_0
   + flow_17_22_0_0 + flow_19_22_0_0 + flow_21_22_0_0 - flow_22_12_0_0
   - flow_22_16_0_0 - flow_22_17_0_0 - flow_22_19_0_0 - flow_22_21_0_0
   - flow_22_23_0_0 + flow_23_22_0_0 = 1
 one_parent_23: edge_2_23_0_0 + edge_3_23_0_0 + edge_5_23_0_0
   + edge_6_23_0_0 + edge_8_23_0_0 + edge_11_23_0_0 + edge_13_23_0_0
   + edge_16_23_0_0 + edge_19_23_0_0 + edge_22_23_0_0 = 1
 consume_one_flow_unit_23: flow_2_23_0_0 + flow_3_23_0_0 + flow_5_23_0_0
   + flow_6_23_0_0 + flow_8_23_0_0 + flow_11_23_0_0 + flow_13_23_0_0
   + flow_16_23_0_0 + flow_19_23_0_0 + flow_22_23_0_0 - flow_23_22_0_0 = 1
 root_flow: flow_0_1_0_0 + flow_0_2_0_0 + flow_0_3_0_0 + flow_0_5_0_0
   + flow_0_6_0_0 + flow_0_7_0_0 + flow_0_8_0_0 + flow_0_10_0_0
   + flow_0_11_0_0 = 23
 inactive_no_flow_0_1_0_0: flow_0_1_0_0 - 1000 edge_0_1_0_0 <= 0
 inactive_no_flow_0_2_0_0: flow_0_2_0_0 - 1000 edge_0_2_0_0 <= 0
 inactive_no_flow_0_3_0_0: flow_0_3_0_0 - 1000 edge_0_3_0_0 <= 0
 inactive_no_flow_0_5_0_0: flow_0_5_0_0 - 1000 edge_0_5_0_0 <= 0
 inactive_no_flow_0_6_0_0: flow_0_6_0_0 - 1000 edge_0_6_0_0 <= 0
 inactive_no_flow_0_7_0_0: flow_0_7_0_0 - 1000 edge_0_7_0_0 <= 0
 inactive_no_flow_0_8_0_0: flow_0_8_0_0 - 1000 edge_0_8_0_0 <= 0
 inactive_no_flow_0_10_0_0: flow_0_10_0_0 - 1000 edge_0_10_0_0 <= 0
 inactive_no_flow_0_11_0_0: flow_0_11_0_0 - 1000 edge_0_11_0_0 <= 0
 inactive_no_flow_1_2_0_0: flow_1_2_0_0 - 1000 edge_1_2_0_0 <= 0
 inactive_no_flow_1_3_0_0: flow_1_3_0_0 - 1000 edge_1_3_0_0 <= 0
 inactive_no_flow_1_4_0_0: flow_1_4_0_0 - 1000 edge_1_4_0_0 <= 0
 inactive_no_flow_1_5_0_0: flow_1_5_0_0 - 1000 edge_1_5_0_0 <= 0
 inactive_no_flow_1_6_0_0: flow_1_6_0_0 - 1000 edge_1_6_0_0 <= 0
 inactive_no_flow_1_8_0_0: flow_1_8_0_0 - 1000 edge_1_8_0_0 <= 0
 inactive_no_flow_1_9_0_0: flow_1_9_0_0 - 1000 edge_1_9_0_0 <= 0
 inactive_no_flow_1_10_0_0: flow_1_10_0_0 - 1000 edge_1_10_0_0 <= 0
 inactive_no_flow_1_11_0_0: flow_1_11_0_0 - 1000 edge_1_11_0_0 <= 0
 inactive_no_flow_2_1_0_0: flow_2_1_0_0 - 1000 edge_2_1_0_0 <= 0
 inactive_no_flow_2_4_0_0: flow_2_4_0_0 - 1000 edge_2_4_0_0 <= 0
 inactive_no_flow_2_5_0_0: flow_2_5_0_0 - 1000 edge_2_5_0_0 <= 0
 inactive_no_flow_2_6_0_0: flow_2_6_0_0 - 1000 edge_2_6_0_0 <= 0
 inactive_no_flow_2_7_0_0: flow_2_7_0_0 - 1000 edge_2_7_0_0 <= 0
 inactive_no_flow_2_8_0_0: flow_2_8_0_0 - 1000 edge_2_8_0_0 <= 0
 inactive_no_flow_2_9_0_0: flow_2_9_0_0 - 1000 edge_2_9_0_0 <= 0
 inactive_no_flow_2_10_0_0: flow_2_10_0_0 - 1000 edge_2_10_0_0 <= 0
 inactive_no_flow_2_11_0_0: flow_2_11_0_0 - 1000 edge_2_11_0_0 <= 0
 inactive_no_flow_2_23_0_0: flow_2_23_0_0 - 1000 edge_2_23_0_0 <= 0
 inactive_no_flow_3_1_0_0: flow_3_1_0_0 - 1000 edge_3_1_0_0 <= 0
 inactive_no_flow_3_2_0_0: flow_3_2_0_0 - 1000 edge_3_2_0_0 <= 0
 inactive_no_flow_3_4_0_0: flow_3_4_0_0 - 1000 edge_3_4_0_0 <= 0
 inactive_no_flow_3_5_0_0: flow_3_5_0_0 - 1000 edge_3_5_0_0 <= 0
 inactive_no_flow_3_6_0_0: flow_3_6_0_0 - 1000 edge_3_6_0_0 <= 0
 inactive_no_flow_3_7_0_0: flow_3_7_0_0 - 1000 edge_3_7_0_0 <= 0
 inactive_no_flow_3_8_0_0: flow_3_8_0_0 - 1000 edge_3_8_0_0 <= 0
 inactive_no_flow_3_9_0_0: flow_3_9_0_0 - 1000 edge_3_9_0_0 <= 0
 inactive_no_flow_3_10_0_0: flow_3_10_0_0 - 1000 edge_3_10_0_0 <= 0
 inactive_no_flow_3_11_0_0: flow_3_11_0_0 - 1000 edge_3_11_0_0 <= 0
 inactive_no_flow_3_13_0_0: flow_3_13_0_0 - 1000 edge_3_13_0_0 <= 0
 inactive_no_flow_3_14_0_0: flow_3_14_0_0 - 1000 edge_3_14_0_0 <= 0
 inactive_no_flow_3_16_0_0: flow_3_16_0_0 - 1000 edge_3_16_0_0 <= 0
 inactive_no_flow_3_17_0_0: flow_3_17_0_0 - 1000 edge_3_17_0_0 <= 0
 inactive_no_flow_3_21_0_0: flow_3_21_0_0 - 1000 edge_3_21_0_0 <= 0
 inactive_no_flow_3_23_0_0: flow_3_23_0_0 - 1000 edge_3_23_0_0 <= 0
 inactive_no_flow_4_1_0_0: flow_4_1_0_0 - 1000 edge_4_1_0_0 <= 0
 inactive_no_flow_4_3_0_0: flow_4_3_0_0 - 1000 edge_4_3_0_0 <= 0
 inactive_no_flow_4_5_0_0: flow_4_5_0_0 - 1000 edge_4_5_0_0 <= 0
 inactive_no_flow_4_7_0_0: flow_4_7_0_0 - 1000 edge_4_7_0_0 <= 0
 inactive_no_flow_5_1_0_0: flow_5_1_0_0 - 1000 edge_5_1_0_0 <= 0
 inactive_no_flow_5_2_0_0: flow_5_2_0_0 - 1000 edge_5_2_0_0 <= 0
 inactive_no_flow_5_3_0_0: flow_5_3_0_0 - 1000 edge_5_3_0_0 <= 0
 inactive_no_flow_5_4_0_0: flow_5_4_0_0 - 1000 edge_5_4_0_0 <= 0
 inactive_no_flow_5_6_0_0: flow_5_6_0_0 - 1000 edge_5_6_0_0 <= 0
 inactive_no_flow_5_7_0_0: flow_5_7_0_0 - 1000 edge_5_7_0_0 <= 0
 inactive_no_flow_5_8_0_0: flow_5_8_0_0 - 1000 edge_5_8_0_0 <= 0
 inactive_no_flow_5_9_0_0: flow_5_9_0_0 - 1000 edge_5_9_0_0 <= 0
 inactive_no_flow_5_10_0_0: flow_5_10_0_0 - 1000 edge_5_10_0_0 <= 0
 inactive_no_flow_5_11_0_0: flow_5_11_0_0 - 1000 edge_5_11_0_0 <= 0
 inactive_no_flow_5_13_0_0: flow_5_13_0_0 - 1000 edge_5_13_0_0 <= 0
 inactive_no_flow_5_14_0_0: flow_5_14_0_0 - 1000 edge_5_14_0_0 <= 0
 inactive_no_flow_5_16_0_0: flow_5_16_0_0 - 1000 edge_5_16_0_0 <= 0
 inactive_no_flow_5_17_0_0: flow_5_17_0_0 - 1000 edge_5_17_0_0 <= 0
 inactive_no_flow_5_19_0_0: flow_5_19_0_0 - 1000 edge_5_19_0_0 <= 0
 inactive_no_flow_5_21_0_0: flow_5_21_0_0 - 1000 edge_5_21_0_0 <= 0
 inactive_no_flow_5_22_0_0: flow_5_22_0_0 - 1000 edge_5_22_0_0 <= 0
 inactive_no_flow_5_23_0_0: flow_5_23_0_0 - 1000 edge_5_23_0_0 <= 0
 inactive_no_flow_6_1_0_0: flow_6_1_0_0 - 1000 edge_6_1_0_0 <= 0
 inactive_no_flow_6_2_0_0: flow_6_2_0_0 - 1000 edge_6_2_0_0 <= 0
 inactive_no_flow_6_3_0_0: flow_6_3_0_0 - 1000 edge_6_3_0_0 <= 0
 inactive_no_flow_6_4_0_0: flow_6_4_0_0 - 1000 edge_6_4_0_0 <= 0
 inactive_no_flow_6_5_0_0: flow_6_5_0_0 - 1000 edge_6_5_0_0 <= 0
 inactive_no_flow_6_7_0_0: flow_6_7_0_0 - 1000 edge_6_7_0_0 <= 0
 inactive_no_flow_6_8_0_0: flow_6_8_0_0 - 1000 edge_6_8_0_0 <= 0
 inactive_no_flow_6_9_0_0: flow_6_9_0_0 - 1000 edge_6_9_0_0 <= 0
 inactive_no_flow_6_10_0_0: flow_6_10_0_0 - 1000 edge_6_10_0_0 <= 0
 inactive_no_flow_6_11_0_0: flow_6_11_0_0 - 1000 edge_6_11_0_0 <= 0
 inactive_no_flow_6_12_0_0: flow_6_12_0_0 - 1000 edge_6_12_0_0 <= 0
 inactive_no_flow_6_13_0_0: flow_6_13_0_0 - 1000 edge_6_13_0_0 <= 0
 inactive_no_flow_6_14_0_0: flow_6_14_0_0 - 1000 edge_6_14_0_0 <= 0
 inactive_no_flow_6_16_0_0: flow_6_16_0_0 - 1000 edge_6_16_0_0 <= 0
 inactive_no_flow_6_17_0_0: flow_6_17_0_0 - 1000 edge_6_17_0_0 <= 0
 inactive_no_flow_6_19_0_0: flow_6_19_0_0 - 1000 edge_6_19_0_0 <= 0
 inactive_no_flow_6_21_0_0: flow_6_21_0_0 - 1000 edge_6_21_0_0 <= 0
 inactive_no_flow_6_22_0_0: flow_6_22_0_0 - 1000 edge_6_22_0_0 <= 0
 inactive_no_flow_6_23_0_0: flow_6_23_0_0 - 1000 edge_6_23_0_0 <= 0
 inactive_no_flow_7_1_0_0: flow_7_1_0_0 - 1000 edge_7_1_0_0 <= 0
 inactive_no_flow_7_2_0_0: flow_7_2_0_0 - 1000 edge_7_2_0_0 <= 0
 inactive_no_flow_7_3_0_0: flow_7_3_0_0 - 1000 edge_7_3_0_0 <= 0
 inactive_no_flow_7_4_0_0: flow_7_4_0_0 - 1000 edge_7_4_0_0 <= 0
 inactive_no_flow_7_5_0_0: flow_7_5_0_0 - 1000 edge_7_5_0_0 <= 0
 inactive_no_flow_7_6_0_0: flow_7_6_0_0 - 1000 edge_7_6_0_0 <= 0
 inactive_no_flow_7_8_0_0: flow_7_8_0_0 - 1000 edge_7_8_0_0 <= 0
 inactive_no_flow_7_9_0_0: flow_7_9_0_0 - 1000 edge_7_9_0_0 <= 0
 inactive_no_flow_7_11_0_0: flow_7_11_0_0 - 1000 edge_7_11_0_0 <= 0
 inactive_no_flow_7_13_0_0: flow_7_13_0_0 - 1000 edge_7_13_0_0 <= 0
 inactive_no_flow_7_14_0_0: flow_7_14_0_0 - 1000 edge_7_14_0_0 <= 0
 inactive_no_flow_8_1_0_0: flow_8_1_0_0 - 1000 edge_8_1_0_0 <= 0
 inactive_no_flow_8_2_0_0: flow_8_2_0_0 - 1000 edge_8_2_0_0 <= 0
 inactive_no_flow_8_3_0_0: flow_8_3_0_0 - 1000 edge_8_3_0_0 <= 0
 inactive_no_flow_8_4_0_0: flow_8_4_0_0 - 1000 edge_8_4_0_0 <= 0
 inactive_no_flow_8_5_0_0: flow_8_5_0_0 - 1000 edge_8_5_0_0 <= 0
 inactive_no_flow_8_6_0_0: flow_8_6_0_0 - 1000 edge_8_6_0_0 <= 0
 inactive_no_flow_8_7_0_0: flow_8_7_0_0 - 1000 edge_8_7_0_0 <= 0
 inactive_no_flow_8_9_0_0: flow_8_9_0_0 - 1000 edge_8_9_0_0 <= 0
 inactive_no_flow_8_10_0_0: flow_8_10_0_0 - 1000 edge_8_10_0_0 <= 0
 inactive_no_flow_8_11_0_0: flow_8_11_0_0 - 1000 edge_8_11_0_0 <= 0
 inactive_no_flow_8_12_0_0: flow_8_12_0_0 - 1000 edge_8_12_0_0 <= 0
 inactive_no_flow_8_13_0_0: flow_8_13_0_0 - 1000 edge_8_13_0_0 <= 0
 inactive_no_flow_8_14_0_0: flow_8_14_0_0 - 1000 edge_8_14_0_0 <= 0
 inactive_no_flow_8_16_0_0: flow_8_16_0_0 - 1000 edge_8_16_0_0 <= 0
 inactive_no_flow_8_17_0_0: flow_8_17_0_0 - 1000 edge_8_17_0_0 <= 0
 inactive_no_flow_8_19_0_0: flow_8_19_0_0 - 1000 edge_8_19_0_0 <= 0
 inactive_no_flow_8_21_0_0: flow_8_21_0_0 - 1000 edge_8_21_0_0 <= 0
 inactive_no_flow_8_22_0_0: flow_8_22_0_0 - 1000 edge_8_22_0_0 <= 0
 inactive_no_flow_8_23_0_0: flow_8_23_0_0 - 1000 edge_8_23_0_0 <= 0
 inactive_no_flow_9_6_0_0: flow_9_6_0_0 - 1000 edge_9_6_0_0 <= 0
 inactive_no_flow_9_8_0_0: flow_9_8_0_0 - 1000 edge_9_8_0_0 <= 0
 inactive_no_flow_9_11_0_0: flow_9_11_0_0 - 1000 edge_9_11_0_0 <= 0
 inactive_no_flow_10_1_0_0: flow_10_1_0_0 - 1000 edge_10_1_0_0 <= 0
 inactive_no_flow_10_3_0_0: flow_10_3_0_0 - 1000 edge_10_3_0_0 <= 0
 inactive_no_flow_10_4_0_0: flow_10_4_0_0 - 1000 edge_10_4_0_0 <= 0
 inactive_no_flow_10_5_0_0: flow_10_5_0_0 - 1000 edge_10_5_0_0 <= 0
 inactive_no_flow_10_6_0_0: flow_10_6_0_0 - 1000 edge_10_6_0_0 <= 0
 inactive_no_flow_10_8_0_0: flow_10_8_0_0 - 1000 edge_10_8_0_0 <= 0
 inactive_no_flow_10_9_0_0: flow_10_9_0_0 - 1000 edge_10_9_0_0 <= 0
 inactive_no_flow_10_11_0_0: flow_10_11_0_0 - 1000 edge_10_11_0_0 <= 0
 inactive_no_flow_10_12_0_0: flow_10_12_0_0 - 1000 edge_10_12_0_0 <= 0
 inactive_no_flow_10_13_0_0: flow_10_13_0_0 - 1000 edge_10_13_0_0 <= 0
 inactive_no_flow_10_14_0_0: flow_10_14_0_0 - 1000 edge_10_14_0_0 <= 0
 inactive_no_flow_10_16_0_0: flow_10_16_0_0 - 1000 edge_10_16_0_0 <= 0
 inactive_no_flow_10_17_0_0: flow_10_17_0_0 - 1000 edge_10_17_0_0 <= 0
 inactive_no_flow_10_19_0_0: flow_10_19_0_0 - 1000 edge_10_19_0_0 <= 0
 inactive_no_flow_10_21_0_0: flow_10_21_0_0 - 1000 edge_10_21_0_0 <= 0
 inactive_no_flow_10_22_0_0: flow_10_22_0_0 - 1000 edge_10_22_0_0 <= 0
 inactive_no_flow_11_1_0_0: flow_11_1_0_0 - 1000 edge_11_1_0_0 <= 0
 inactive_no_flow_11_2_0_0: flow_11_2_0_0 - 1000 edge_11_2_0_0 <= 0
 inactive_no_flow_11_3_0_0: flow_11_3_0_0 - 1000 edge_11_3_0_0 <= 0
 inactive_no_flow_11_4_0_0: flow_11_4_0_0 - 1000 edge_11_4_0_0 <= 0
 inactive_no_flow_11_5_0_0: flow_11_5_0_0 - 1000 edge_11_5_0_0 <= 0
 inactive_no_flow_11_6_0_0: flow_11_6_0_0 - 1000 edge_11_6_0_0 <= 0
 inactive_no_flow_11_7_0_0: flow_11_7_0_0 - 1000 edge_11_7_0_0 <= 0
 inactive_no_flow_11_8_0_0: flow_11_8_0_0 - 1000 edge_11_8_0_0 <= 0
 inactive_no_flow_11_9_0_0: flow_11_9_0_0 - 1000 edge_11_9_0_0 <= 0
 inactive_no_flow_11_10_0_0: flow_11_10_0_0 - 1000 edge_11_10_0_0 <= 0
 inactive_no_flow_11_12_0_0: flow_11_12_0_0 - 1000 edge_11_12_0_0 <= 0
 inactive_no_flow_11_13_0_0: flow_11_13_0_0 - 1000 edge_11_13_0_0 <= 0
 inactive_no_flow_11_14_0_0: flow_11_14_0_0 - 1000 edge_11_14_0_0 <= 0
 inactive_no_flow_11_16_0_0: flow_11_16_0_0 - 1000 edge_11_16_0_0 <= 0
 inactive_no_flow_11_17_0_0: flow_11_17_0_0 - 1000 edge_11_17_0_0 <= 0
 inactive_no_flow_11_19_0_0: flow_11_19_0_0 - 1000 edge_11_19_0_0 <= 0
 inactive_no_flow_11_21_0_0: flow_11_21_0_0 - 1000 edge_11_21_0_0 <= 0
 inactive_no_flow_11_22_0_0: flow_11_22_0_0 - 1000 edge_11_22_0_0 <= 0
 inactive_no_flow_11_23_0_0: flow_11_23_0_0 - 1000 edge_11_23_0_0 <= 0
 inactive_no_flow_12_9_0_0: flow_12_9_0_0 - 1000 edge_12_9_0_0 <= 0
 inactive_no_flow_12_11_0_0: flow_12_11_0_0 - 1000 edge_12_11_0_0 <= 0
 inactive_no_flow_12_13_0_0: flow_12_13_0_0 - 1000 edge_12_13_0_0 <= 0
 inactive_no_flow_12_14_0_0: flow_12_14_0_0 - 1000 edge_12_14_0_0 <= 0
 inactive_no_flow_12_16_0_0: flow_12_16_0_0 - 1000 edge_12_16_0_0 <= 0
 inactive_no_flow_12_17_0_0: flow_12_17_0_0 - 1000 edge_12_17_0_0 <= 0
 inactive_no_flow_12_19_0_0: flow_12_19_0_0 - 1000 edge_12_19_0_0 <= 0
 inactive_no_flow_13_1_0_0: flow_13_1_0_0 - 1000 edge_13_1_0_0 <= 0
 inactive_no_flow_13_2_0_0: flow_13_2_0_0 - 1000 edge_13_2_0_0 <= 0
 inactive_no_flow_13_3_0_0: flow_13_3_0_0 - 1000 edge_13_3_0_0 <= 0
 inactive_no_flow_13_4_0_0: flow_13_4_0_0 - 1000 edge_13_4_0_0 <= 0
 inactive_no_flow_13_5_0_0: flow_13_5_0_0 - 1000 edge_13_5_0_0 <= 0
 inactive_no_flow_13_6_0_0: flow_13_6_0_0 - 1000 edge_13_6_0_0 <= 0
 inactive_no_flow_13_7_0_0: flow_13_7_0_0 - 1000 edge_13_7_0_0 <= 0
 inactive_no_flow_13_8_0_0: flow_13_8_0_0 - 1000 edge_13_8_0_0 <= 0
 inactive_no_flow_13_9_0_0: flow_13_9_0_0 - 1000 edge_13_9_0_0 <= 0
 inactive_no_flow_13_10_0_0: flow_13_10_0_0 - 1000 edge_13_10_0_0 <= 0
 inactive_no_flow_13_11_0_0: flow_13_11_0_0 - 1000 edge_13_11_0_0 <= 0
 inactive_no_flow_13_12_0_0: flow_13_12_0_0 - 1000 edge_13_12_0_0 <= 0
 inactive_no_flow_13_14_0_0: flow_13_14_0_0 - 1000 edge_13_14_0_0 <= 0
 inactive_no_flow_13_16_0_0: flow_13_16_0_0 - 1000 edge_13_16_0_0 <= 0
 inactive_no_flow_13_17_0_0: flow_13_17_0_0 - 1000 edge_13_17_0_0 <= 0
 inactive_no_flow_13_19_0_0: flow_13_19_0_0 - 1000 edge_13_19_0_0 <= 0
 inactive_no_flow_13_21_0_0: flow_13_21_0_0 - 1000 edge_13_21_0_0 <= 0
 inactive_no_flow_13_22_0_0: flow_13_22_0_0 - 1000 edge_13_22_0_0 <= 0
 inactive_no_flow_13_23_0_0: flow_13_23_0_0 - 1000 edge_13_23_0_0 <= 0
 inactive_no_flow_14_13_0_0: flow_14_13_0_0 - 1000 edge_14_13_0_0 <= 0
 inactive_no_flow_14_16_0_0: flow_14_16_0_0 - 1000 edge_14_16_0_0 <= 0
 inactive_no_flow_16_1_0_0: flow_16_1_0_0 - 1000 edge_16_1_0_0 <= 0
 inactive_no_flow_16_4_0_0: flow_16_4_0_0 - 1000 edge_16_4_0_0 <= 0
 inactive_no_flow_16_5_0_0: flow_16_5_0_0 - 1000 edge_16_5_0_0 <= 0
 inactive_no_flow_16_6_0_0: flow_16_6_0_0 - 1000 edge_16_6_0_0 <= 0
 inactive_no_flow_16_8_0_0: flow_16_8_0_0 - 1000 edge_16_8_0_0 <= 0
 inactive_no_flow_16_9_0_0: flow_16_9_0_0 - 1000 edge_16_9_0_0 <= 0
 inactive_no_flow_16_11_0_0: flow_16_11_0_0 - 1000 edge_16_11_0_0 <= 0
 inactive_no_flow_16_12_0_0: flow_16_12_0_0 - 1000 edge_16_12_0_0 <= 0
 inactive_no_flow_16_13_0_0: flow_16_13_0_0 - 1000 edge_16_13_0_0 <= 0
 inactive_no_flow_16_14_0_0: flow_16_14_0_0 - 1000 edge_16_14_0_0 <= 0
 inactive_no_flow_16_17_0_0: flow_16_17_0_0 - 1000 edge_16_17_0_0 <= 0
 inactive_no_flow_16_19_0_0: flow_16_19_0_0 - 1000 edge_16_19_0_0 <= 0
 inactive_no_flow_16_21_0_0: flow_16_21_0_0 - 1000 edge_16_21_0_0 <= 0
 inactive_no_flow_16_22_0_0: flow_16_22_0_0 - 1000 edge_16_22_0_0 <= 0
 inactive_no_flow_16_23_0_0: flow_16_23_0_0 - 1000 edge_16_23_0_0 <= 0
 inactive_no_flow_17_16_0_0: flow_17_16_0_0 - 1000 edge_17_16_0_0 <= 0
 inactive_no_flow_17_19_0_0: flow_17_19_0_0 - 1000 edge_17_19_0_0 <= 0
 inactive_no_flow_17_21_0_0: flow_17_21_0_0 - 1000 edge_17_21_0_0 <= 0
 inactive_no_flow_17_22_0_0: flow_17_22_0_0 - 1000 edge_17_22_0_0 <= 0
 inactive_no_flow_19_12_0_0: flow_19_12_0_0 - 1000 edge_19_12_0_0 <= 0
 inactive_no_flow_19_13_0_0: flow_19_13_0_0 - 1000 edge_19_13_0_0 <= 0
 inactive_no_flow_19_14_0_0: flow_19_14_0_0 - 1000 edge_19_14_0_0 <= 0
 inactive_no_flow_19_16_0_0: flow_19_16_0_0 - 1000 edge_19_16_0_0 <= 0
 inactive_no_flow_19_17_0_0: flow_19_17_0_0 - 1000 edge_19_17_0_0 <= 0
 inactive_no_flow_19_21_0_0: flow_19_21_0_0 - 1000 edge_19_21_0_0 <= 0
 inactive_no_flow_19_22_0_0: flow_19_22_0_0 - 1000 edge_19_22_0_0 <= 0
 inactive_no_flow_19_23_0_0: flow_19_23_0_0 - 1000 edge_19_23_0_0 <= 0
 inactive_no_flow_21_17_0_0: flow_21_17_0_0 - 1000 edge_21_17_0_0 <= 0
 inactive_no_flow_21_19_0_0: flow_21_19_0_0 - 1000 edge_21_19_0_0 <= 0
 inactive_no_flow_21_22_0_0: flow_21_22_0_0 - 1000 edge_21_22_0_0 <= 0
 inactive_no_flow_22_12_0_0: flow_22_12_0_0 - 1000 edge_22_12_0_0 <= 0
 inactive_no_flow_22_16_0_0: flow_22_16_0_0 - 1000 edge_22_16_0_0 <= 0
 inactive_no_flow_22_17_0_0: flow_22_17_0_0 - 1000 edge_22_17_0_0 <= 0
 inactive_no_flow_22_19_0_0: flow_22_19_0_0 - 1000 edge_22_19_0_0 <= 0
 inactive_no_flow_22_21_0_0: flow_22_21_0_0 - 1000 edge_22_21_0_0 <= 0
 inactive_no_flow_22_23_0_0: flow_22_23_0_0 - 1000 edge_22_23_0_0 <= 0
 inactive_no_flow_23_22_0_0: flow_23_22_0_0 - 1000 edge_23_22_0_0 <= 0
Bounds
Binaries
 edge_0_1_0_0 edge_0_2_0_0 edge_0_3_0_0 edge_0_5_0_0 edge_0_6_0_0
 edge_0_7_0_0 edge_0_8_0_0 edge_0_10_0_0 edge_0_11_0_0 edge_1_2_0_0
 edge_1_3_0_0 edge_1_4_0_0 edge_1_5_0_0 edge_1_6_0_0 edge_1_8_0_0
 edge_1_9_0_0 edge_1_10_0_0 edge_1_11_0_0 edge_2_1_0_0 edge_2_4_0_0
 edge_2_5_0_0 edge_2_6_0_0 edge_2_7_0_0 edge_2_8_0_0 edge_2_9_0_0
 edge_2_10_0_0 edge_2_11_0_0 edge_2_23_0_0 edge_3_1_0_0 edge_3_2_0_0
 edge_3_4_0_0 edge_3_5_0_0 edge_3_6_0_0 edge_3_7_0_0 edge_3_8_0_0
 edge_3_9_0_0 edge_3_10_0_0 edge_3_11_0_0 edge_3_13_0_0 edge_3_14_0_0
 edge_3_16_0_0 edge_3_17_0_0 edge_3_21_0_0 edge_3_23_0_0 edge_4_1_0_0
 edge_4_3_0_0 edge_4_5_0_0 edge_4_7_0_0 edge_5_1_0_0 edge_5_2_0_0
 edge_5_3_0_0 edge_5_4_0_0 edge_5_6_0_0 edge_5_7_0_0 edge_5_8_0_0
 edge_5_9_0_0 edge_5_10_0_0 edge_5_11_0_0 edge_5_13_0_0 edge_5_14_0_0
 edge_5_16_0_0 edge_5_17_0_0 edge_5_19_0_0 edge_5_21_0_0 edge_5_22_0_0
 edge_5_23_0_0 edge_6_1_0_0 edge_6_2_0_0 edge_6_3_0_0 edge_6_4_0_0
 edge_6_5_0_0 edge_6_7_0_0 edge_6_8_0_0 edge_6_9_0_0 edge_6_10_0_0
 edge_6_11_0_0 edge_6_12_0_0 edge_6_13_0_0 edge_6_14_0_0 edge_6_16_0_0
 edge_6_17_0_0 edge_6_19_0_0 edge_6_21_0_0 edge_6_22_0_0 edge_6_23_0_0
 edge_7_1_0_0 edge_7_2_0_0 edge_7_3_0_0 edge_7_4_0_0 edge_7_5_0_0
 edge_7_6_0_0 edge_7_8_0_0 edge_7_9_0_0 edge_7_11_0_0 edge_7_13_0_0
 edge_7_14_0_0 edge_8_1_0_0 edge_8_2_0_0 edge_8_3_0_0 edge_8_4_0_0
 edge_8_5_0_0 edge_8_6_0_0 edge_8_7_0_0 edge_8_9_0_0 edge_8_10_0_0
 edge_8_11_0_0 edge_8_12_0_0 edge_8_13_0_0 edge_8_14_0_0 edge_8_16_0_0
 edge_8_17_0_0 edge_8_19_0_0 edge_8_21_0_0 edge_8_22_0_0 edge_8_23_0_0
 edge_9_6_0_0 edge_9_8_0_0 edge_9_11_0_0 edge_10_1_0_0 edge_10_3_0_0
 edge_10_4_0_0 edge_10_5_0_0 edge_10_6_0_0 edge_10_8_0_0 edge_10_9_0_0
 edge_10_11_0_0 edge_10_12_0_0 edge_10_13_0_0 edge_10_14_0_0 edge_10_16_0_0
 edge_10_17_0_0 edge_10_19_0_0 edge_10_21_0_0 edge_10_22_0_0 edge_11_1_0_0
 edge_11_2_0_0 edge_11_3_0_0 edge_11_4_0_0 edge_11_5_0_0 edge_11_6_0_0
 edge_11_7_0_0 edge_11_8_0_0 edge_11_9_0_0 edge_11_10_0_0 edge_11_12_0_0
 edge_11_13_0_0 edge_11_14_0_0 edge_11_16_0_0 edge_11_17_0_0 edge_11_19_0_0
 edge_11_21_0_0 edge_11_22_0_0 edge_11_23_0_0 edge_12_9_0_0 edge_12_11_0_0
 edge_12_13_0_0 edge_12_14_0_0 edge_12_16_0_0 edge_12_17_0_0 edge_12_19_0_0
 edge_13_1_0_0 edge_13_2_0_0 edge_13_3_0_0 edge_13_4_0_0 edge_13_5_0_0
 edge_13_6_0_0 edge_13_7_0_0 edge_13_8_0_0 edge_13_9_0_0 edge_13_10_0_0
 edge_13_11_0_0 edge_13_12_0_0 edge_13_14_0_0 edge_13_16_0_0 edge_13_17_0_0
 edge_13_19_0_0 edge_13_21_0_0 edge_13_22_0_0 edge_13_23_0_0 edge_14_13_0_0
 edge_14_16_0_0 edge_16_1_0_0 edge_16_4_0_0 edge_16_5_0_0 edge_16_6_0_0
 edge_16_8_0_0 edge_16_9_0_0 edge_16_11_0_0 edge_16_12_0_0 edge_16_13_0_0
 edge_16_14_0_0 edge_16_17_0_0 edge_16_19_0_0 edge_16_21_0_0 edge_16_22_0_0
 edge_16_23_0_0 edge_17_16_0_0 edge_17_19_0_0 edge_17_21_0_0 edge_17_22_0_0
 edge_19_12_0_0 edge_19_13_0_0 edge_19_14_0_0 edge_19_16_0_0 edge_19_17_0_0
 edge_19_21_0_0 edge_19_22_0_0 edge_19_23_0_0 edge_21_17_0_0 edge_21_19_0_0
 edge_21_22_0_0 edge_22_12_0_0 edge_22_16_0_0 edge_22_17_0_0 edge_22_19_0_0
 edge_22_21_0_0 edge_22_23_0_0 edge_23_22_0_0
End
